c Random generated cnf formula, satisfiable: false
p cnf 10 50
-10 8 2 0
-9 -5 6 0
-2 -8 5 0
8 -10 7 0
9 3 -4 0
-1 -3 8 0
4 8 -6 0
5 -6 8 0
8 -9 -10 0
-10 1 -6 0
6 9 -4 0
1 8 -4 0
8 4 -1 0
6 5 2 0
8 9 7 0
2 5 -8 0
2 -9 -3 0
-9 5 10 0
4 -6 -9 0
-6 8 5 0
9 6 10 0
-8 -7 9 0
3 1 4 0
-3 -5 10 0
-2 -5 -6 0
1 6 7 0
10 -6 -3 0
-1 -7 10 0
-2 5 -3 0
1 -4 7 0
2 1 -3 0
10 -5 -1 0
-1 -2 -10 0
-8 3 -5 0
2 -4 -6 0
9 6 4 0
-6 -9 -4 0
-8 7 -6 0
10 9 -8 0
9 -3 10 0
9 -1 -10 0
-2 -6 7 0
-1 -8 7 0
-3 -5 2 0
8 -10 1 0
-5 -4 -7 0
-5 3 -4 0
7 2 -5 0
5 9 -1 0
6 -8 -1 0
